Welcome to the CBC MILP Solver 
Version: Trunk
Build Date: Apr 16 2020 

Starting solution of the Linear programming relaxation problem using Primal Simplex

Using Python-MIP package version 1.8.1
Machines:  4 Jobs:  4
Order: 
Job  0 : machine 0 ( 10 ) machine 3 ( 1 ) machine 2 ( 6 ) machine 1 ( 7 ) 
Job  1 : machine 0 ( 1 ) machine 3 ( 7 ) machine 1 ( 5 ) machine 2 ( 8 ) 
Job  2 : machine 3 ( 9 ) machine 2 ( 3 ) machine 1 ( 7 ) machine 0 ( 1 ) 
Job  3 : machine 1 ( 7 ) machine 3 ( 3 ) machine 0 ( 9 ) machine 2 ( 10 ) 
K:  44
Job  0 , e: machine  0 ( 0 ) machine  1 ( 17 ) machine  2 ( 11 ) machine  3 ( 10 ) 
Job  1 , e: machine  0 ( 0 ) machine  1 ( 8 ) machine  2 ( 13 ) machine  3 ( 1 ) 
Job  2 , e: machine  0 ( 19 ) machine  1 ( 12 ) machine  2 ( 9 ) machine  3 ( 0 ) 
Job  3 , e: machine  0 ( 10 ) machine  1 ( 0 ) machine  2 ( 19 ) machine  3 ( 7 ) 
Job  0 , f: machine  0 ( 14 ) machine  1 ( 0 ) machine  2 ( 7 ) machine  3 ( 13 ) 
Job  1 , f: machine  0 ( 20 ) machine  1 ( 8 ) machine  2 ( 0 ) machine  3 ( 13 ) 
Job  2 , f: machine  0 ( 0 ) machine  1 ( 1 ) machine  2 ( 8 ) machine  3 ( 11 ) 
Job  3 , f: machine  0 ( 10 ) machine  1 ( 22 ) machine  2 ( 0 ) machine  3 ( 19 ) 
EST and LST:
Job: 0 Machine: 0 EST: 0 LST: 20
Job: 0 Machine: 1 EST: 17 LST: 37
Job: 0 Machine: 2 EST: 11 LST: 31
Job: 0 Machine: 3 EST: 10 LST: 30
Job: 1 Machine: 0 EST: 0 LST: 23
Job: 1 Machine: 1 EST: 8 LST: 31
Job: 1 Machine: 2 EST: 13 LST: 36
Job: 1 Machine: 3 EST: 1 LST: 24
Job: 2 Machine: 0 EST: 19 LST: 43
Job: 2 Machine: 1 EST: 12 LST: 36
Job: 2 Machine: 2 EST: 9 LST: 33
Job: 2 Machine: 3 EST: 0 LST: 24
Job: 3 Machine: 0 EST: 10 LST: 25
Job: 3 Machine: 1 EST: 0 LST: 15
Job: 3 Machine: 2 EST: 19 LST: 34
Job: 3 Machine: 3 EST: 7 LST: 22
Order:
Job: 0 Machine: 0 = 0 
Job: 0 Machine: 1 = 3 
Job: 0 Machine: 2 = 2 
Job: 0 Machine: 3 = 1 
Job: 1 Machine: 0 = 0 
Job: 1 Machine: 1 = 2 
Job: 1 Machine: 2 = 3 
Job: 1 Machine: 3 = 1 
Job: 2 Machine: 0 = 3 
Job: 2 Machine: 1 = 2 
Job: 2 Machine: 2 = 1 
Job: 2 Machine: 3 = 0 
Job: 3 Machine: 0 = 2 
Job: 3 Machine: 1 = 0 
Job: 3 Machine: 2 = 3 
Job: 3 Machine: 3 = 1 
Distances:
Job 0, Machine 0 -> Machine 3: distance 10
Job 0, Machine 0 -> Machine 2: distance 11
Job 0, Machine 0 -> Machine 1: distance 17
Job 0, Machine 3 -> Machine 2: distance 1
Job 0, Machine 3 -> Machine 1: distance 7
Job 0, Machine 2 -> Machine 1: distance 6
Job 1, Machine 0 -> Machine 3: distance 1
Job 1, Machine 0 -> Machine 1: distance 8
Job 1, Machine 0 -> Machine 2: distance 13
Job 1, Machine 3 -> Machine 1: distance 7
Job 1, Machine 3 -> Machine 2: distance 12
Job 1, Machine 1 -> Machine 2: distance 5
Job 2, Machine 3 -> Machine 2: distance 9
Job 2, Machine 3 -> Machine 1: distance 12
Job 2, Machine 3 -> Machine 0: distance 19
Job 2, Machine 2 -> Machine 1: distance 3
Job 2, Machine 2 -> Machine 0: distance 10
Job 2, Machine 1 -> Machine 0: distance 7
Job 3, Machine 1 -> Machine 3: distance 7
Job 3, Machine 1 -> Machine 0: distance 10
Job 3, Machine 1 -> Machine 2: distance 19
Job 3, Machine 3 -> Machine 0: distance 3
Job 3, Machine 3 -> Machine 2: distance 12
Job 3, Machine 0 -> Machine 2: distance 9
McCormic linearization
[(1, 2), (3, 2), (0, 0), (3, 3), (2, 0), (2, 3), (1, 0), (0, 2)]
obj:  0.6000000000000001
solutions:  1
+ x(0,0) + 0.10000000000000002x(1,0) 
C:  28.999999999999996
x(0,0) = 0.20	 x(0,1) = 19.00	 x(0,2) = 13.00	 x(0,3) = 10.20	 
x(1,0) = 8.00	 x(1,1) = 16.00	 x(1,2) = 21.00	 x(1,3) = 9.00	 
x(2,0) = 20.20	 x(2,1) = 13.20	 x(2,2) = 10.20	 x(2,3) = 1.20	 
x(3,0) = 10.00	 x(3,1) = 0.00	 x(3,2) = 19.00	 x(3,3) = 7.00	 
y(0,1,0) = 0.37	 y(1,0,0) = 0.63	 
y(0,2,0) = 0.48	 y(2,0,0) = 0.52	 
y(0,3,0) = 0.99	 y(3,0,0) = 0.01	 
y(1,2,0) = 0.30	 y(2,1,0) = 0.70	 
y(1,3,0) = 0.96	 y(3,1,0) = 0.04	 
y(2,3,0) = 0.00	 y(3,2,0) = 1.00	 
y(0,1,1) = 0.48	 y(1,0,1) = 0.52	 
y(0,2,1) = 0.05	 y(2,0,1) = 0.95	 
y(0,3,1) = 0.00	 y(3,0,1) = 1.00	 
y(1,2,1) = 0.12	 y(2,1,1) = 0.88	 
y(1,3,1) = 0.38	 y(3,1,1) = 0.62	 
y(2,3,1) = 0.00	 y(3,2,1) = 1.00	 
y(0,1,2) = 0.48	 y(1,0,2) = 0.52	 
y(0,2,2) = 0.44	 y(2,0,2) = 0.56	 
y(0,3,2) = 1.00	 y(3,0,2) = 0.00	 
y(1,2,2) = 0.00	 y(2,1,2) = 1.00	 
y(1,3,2) = 0.26	 y(3,1,2) = 0.74	 
y(2,3,2) = 0.74	 y(3,2,2) = 0.26	 
y(0,1,3) = 0.28	 y(1,0,3) = 0.72	 
y(0,2,3) = 0.00	 y(2,0,3) = 1.00	 
y(0,3,3) = 0.01	 y(3,0,3) = 0.99	 
y(1,2,3) = 0.04	 y(2,1,3) = 0.96	 
y(1,3,3) = 0.04	 y(3,1,3) = 0.96	 
y(2,3,3) = 0.35	 y(3,2,3) = 0.65	 
obj:  1.0
erro
[(1, 2), (0, 1), (0, 0), (0, 2), (3, 1), (2, 0), (2, 2), (1, 0), (1, 1)]
cliques:  0 mip: 72
C:  29.699716713880658
x(0,0) = 5.70	 x(0,1) = 22.70	 x(0,2) = 16.70	 x(0,3) = 15.70	 
x(1,0) = -0.00	 x(1,1) = 8.00	 x(1,2) = 13.00	 x(1,3) = 1.00	 
x(2,0) = 22.70	 x(2,1) = 15.70	 x(2,2) = 12.70	 x(2,3) = 3.70	 
x(3,0) = 10.09	 x(3,1) = 0.00	 x(3,2) = 19.09	 x(3,3) = 7.08	 
y(0,1,0) = 0.00	 y(1,0,0) = 1.00	 
y(0,2,0) = 0.70	 y(2,0,0) = 0.30	 
y(0,3,0) = 0.39	 y(3,0,0) = 0.61	 
y(1,2,0) = 0.54	 y(2,1,0) = 0.46	 
y(1,3,0) = 0.62	 y(3,1,0) = 0.38	 
y(2,3,0) = 0.00	 y(3,2,0) = 1.00	 
y(0,1,1) = 0.13	 y(1,0,1) = 0.87	 
y(0,2,1) = 0.00	 y(2,0,1) = 1.00	 
y(0,3,1) = 0.00	 y(3,0,1) = 1.00	 
y(1,2,1) = 0.42	 y(2,1,1) = 0.58	 
y(1,3,1) = 0.04	 y(3,1,1) = 0.96	 
y(2,3,1) = 0.00	 y(3,2,1) = 1.00	 
y(0,1,2) = 0.13	 y(1,0,2) = 0.87	 
y(0,2,2) = 0.14	 y(2,0,2) = 0.86	 
y(0,3,2) = 0.71	 y(3,0,2) = 0.29	 
y(1,2,2) = 0.12	 y(2,1,2) = 0.88	 
y(1,3,2) = 0.92	 y(3,1,2) = 0.08	 
y(2,3,2) = 0.85	 y(3,2,2) = 0.15	 
y(0,1,3) = 0.00	 y(1,0,3) = 1.00	 
y(0,2,3) = 0.14	 y(2,0,3) = 0.86	 
y(0,3,3) = 0.26	 y(3,0,3) = 0.74	 
y(1,2,3) = 0.37	 y(2,1,3) = 0.63	 
y(1,3,3) = 0.38	 y(3,1,3) = 0.62	 
y(2,3,3) = 0.26	 y(3,2,3) = 0.74	 
obj:  0.48276748800671
solutions:  1
+ 0.07082152974504252x(1,3) + 0.022662889518413592x(3,3) + 0.0679886685552408x(2,3) 
[(0, 0), (1, 3), (3, 3), (3, 0), (2, 1), (2, 0), (2, 3), (1, 0), (1, 1)]
cliques:  1 mip: 121
C:  30.99999999999994
x(0,0) = 2.22	 x(0,1) = 22.44	 x(0,2) = 13.68	 x(0,3) = 12.68	 
x(1,0) = 0.00	 x(1,1) = 8.00	 x(1,2) = 13.00	 x(1,3) = 1.00	 
x(2,0) = 30.00	 x(2,1) = 23.00	 x(2,2) = 20.00	 x(2,3) = 11.00	 
x(3,0) = 11.00	 x(3,1) = 1.00	 x(3,2) = 21.00	 x(3,3) = 8.00	 
y(0,1,0) = 0.00	 y(1,0,0) = 1.00	 
y(0,2,0) = 0.83	 y(2,0,0) = 0.17	 
y(0,3,0) = 0.94	 y(3,0,0) = 0.06	 
y(1,2,0) = 1.00	 y(2,1,0) = 0.00	 
y(1,3,0) = 0.59	 y(3,1,0) = 0.41	 
y(2,3,0) = 0.00	 y(3,2,0) = 1.00	 
y(0,1,1) = 0.00	 y(1,0,1) = 1.00	 
y(0,2,1) = 0.29	 y(2,0,1) = 0.71	 
y(0,3,1) = 0.00	 y(3,0,1) = 1.00	 
y(1,2,1) = 0.90	 y(2,1,1) = 0.10	 
y(1,3,1) = -0.00	 y(3,1,1) = 1.00	 
y(2,3,1) = 0.00	 y(3,2,1) = 1.00	 
y(0,1,2) = 0.72	 y(1,0,2) = 0.28	 
y(0,2,2) = 0.37	 y(2,0,2) = 0.63	 
y(0,3,2) = 1.00	 y(3,0,2) = 0.00	 
y(1,2,2) = 0.43	 y(2,1,2) = 0.57	 
y(1,3,2) = 1.00	 y(3,1,2) = -0.00	 
y(2,3,2) = 0.88	 y(3,2,2) = 0.12	 
y(0,1,3) = 0.00	 y(1,0,3) = 1.00	 
y(0,2,3) = 0.47	 y(2,0,3) = 0.53	 
y(0,3,3) = 0.00	 y(3,0,3) = 1.00	 
y(1,2,3) = 0.87	 y(2,1,3) = 0.13	 
y(1,3,3) = 0.90	 y(3,1,3) = 0.10	 
y(2,3,3) = 0.00	 y(3,2,3) = 1.00	 
obj:  0.863099048350584
solutions:  1
+ 0.046728971962616814x(1,2) + 0.01869158878504673x(0,2) 
[(1, 2), (0, 1), (3, 0), (2, 1), (2, 3), (2, 2), (1, 0), (0, 2), (0, 3)]
cliques:  1 mip: 62
C:  31.496330734492183
x(0,0) = 0.62	 x(0,1) = 24.50	 x(0,2) = 11.62	 x(0,3) = 10.62	 
x(1,0) = 3.75	 x(1,1) = 11.75	 x(1,2) = 16.75	 x(1,3) = 4.75	 
x(2,0) = 30.50	 x(2,1) = 20.18	 x(2,2) = 17.18	 x(2,3) = 8.18	 
x(3,0) = 10.67	 x(3,1) = 0.00	 x(3,2) = 19.67	 x(3,3) = 7.00	 
y(0,1,0) = 0.17	 y(1,0,0) = 0.83	 
y(0,2,0) = 0.84	 y(2,0,0) = 0.16	 
y(0,3,0) = 0.87	 y(3,0,0) = 0.13	 
y(1,2,0) = 1.00	 y(2,1,0) = 0.00	 
y(1,3,0) = 0.50	 y(3,1,0) = 0.50	 
y(2,3,0) = 0.00	 y(3,2,0) = 1.00	 
y(0,1,1) = 0.00	 y(1,0,1) = 1.00	 
y(0,2,1) = 0.10	 y(2,0,1) = 0.90	 
y(0,3,1) = 0.00	 y(3,0,1) = 1.00	 
y(1,2,1) = 0.79	 y(2,1,1) = 0.21	 
y(1,3,1) = 0.16	 y(3,1,1) = 0.84	 
y(2,3,1) = 0.00	 y(3,2,1) = 1.00	 
y(0,1,2) = 0.96	 y(1,0,2) = 0.04	 
y(0,2,2) = 0.37	 y(2,0,2) = 0.63	 
y(0,3,2) = 1.00	 y(3,0,2) = 0.00	 
y(1,2,2) = 0.57	 y(2,1,2) = 0.43	 
y(1,3,2) = 0.77	 y(3,1,2) = 0.23	 
y(2,3,2) = 0.97	 y(3,2,2) = 0.03	 
y(0,1,3) = 0.05	 y(1,0,3) = 0.95	 
y(0,2,3) = 0.43	 y(2,0,3) = 0.57	 
y(0,3,3) = 0.00	 y(3,0,3) = 1.00	 
y(1,2,3) = 0.74	 y(2,1,3) = 0.26	 
y(1,3,3) = 0.43	 y(3,1,3) = 0.57	 
y(2,3,3) = 0.24	 y(3,2,3) = 0.76	 
obj:  0.8664558929879332
solutions:  1
+ 0.006122448979591841x(1,3) + 0.10010465724751438x(3,3) + 0.014599686028257465x(2,3) + 0.001622187336473049x(0,3) 
[(1, 2), (1, 3), (3, 3), (3, 0), (1, 0), (2, 3), (2, 2), (0, 3), (0, 2)]
cliques:  1 mip: 120
C:  31.999999999999993
x(0,0) = 0.83	 x(0,1) = 25.00	 x(0,2) = 12.18	 x(0,3) = 11.18	 
x(1,0) = 1.69	 x(1,1) = 9.93	 x(1,2) = 17.88	 x(1,3) = 2.93	 
x(2,0) = 31.00	 x(2,1) = 21.96	 x(2,2) = 18.96	 x(2,3) = 9.96	 
x(3,0) = 11.18	 x(3,1) = 1.18	 x(3,2) = 20.18	 x(3,3) = 8.18	 
y(0,1,0) = 0.08	 y(1,0,0) = 0.92	 
y(0,2,0) = 1.00	 y(2,0,0) = 0.00	 
y(0,3,0) = 0.89	 y(3,0,0) = 0.11	 
y(1,2,0) = 1.00	 y(2,1,0) = 0.00	 
y(1,3,0) = 0.54	 y(3,1,0) = 0.46	 
y(2,3,0) = 0.00	 y(3,2,0) = 1.00	 
y(0,1,1) = 0.00	 y(1,0,1) = 1.00	 
y(0,2,1) = 0.20	 y(2,0,1) = 0.80	 
y(0,3,1) = 0.00	 y(3,0,1) = 1.00	 
y(1,2,1) = 0.86	 y(2,1,1) = 0.14	 
y(1,3,1) = 0.07	 y(3,1,1) = 0.93	 
y(2,3,1) = 0.00	 y(3,2,1) = 1.00	 
y(0,1,2) = 0.99	 y(1,0,2) = 0.01	 
y(0,2,2) = 0.39	 y(2,0,2) = 0.61	 
y(0,3,2) = 1.00	 y(3,0,2) = 0.00	 
y(1,2,2) = 0.33	 y(2,1,2) = 0.67	 
y(1,3,2) = 0.77	 y(3,1,2) = 0.23	 
y(2,3,2) = 0.89	 y(3,2,2) = 0.11	 
y(0,1,3) = 0.00	 y(1,0,3) = 1.00	 
y(0,2,3) = 0.93	 y(2,0,3) = 0.07	 
y(0,3,3) = 0.00	 y(3,0,3) = 1.00	 
y(1,2,3) = 0.82	 y(2,1,3) = 0.18	 
y(1,3,3) = 0.65	 y(3,1,3) = 0.35	 
y(2,3,3) = 0.05	 y(3,2,3) = 0.95	 
obj:  0.8632833858055681
solutions:  1
+ 0.014930399640772342x(1,2) + 0.02346205657835653x(3,2) + 0.010103277952402337x(0,2) 
[(1, 2), (0, 1), (3, 2), (1, 3), (3, 3), (3, 0), (2, 1), (2, 2), (1, 0), (0, 2)]
cliques:  1 mip: 92
C:  33.0344850315693
x(0,0) = 0.09	 x(0,1) = 26.03	 x(0,2) = 20.03	 x(0,3) = 19.03	 
x(1,0) = 9.08	 x(1,1) = 18.44	 x(1,2) = 23.44	 x(1,3) = 11.44	 
x(2,0) = 32.03	 x(2,1) = 25.03	 x(2,2) = 22.03	 x(2,3) = 13.03	 
x(3,0) = 10.08	 x(3,1) = 0.08	 x(3,2) = 19.08	 x(3,3) = 7.08	 
y(0,1,0) = 0.63	 y(1,0,0) = 0.37	 
y(0,2,0) = 1.00	 y(2,0,0) = 0.00	 
y(0,3,0) = 1.00	 y(3,0,0) = 0.00	 
y(1,2,0) = 1.00	 y(2,1,0) = 0.00	 
y(1,3,0) = 1.00	 y(3,1,0) = -0.00	 
y(2,3,0) = 0.00	 y(3,2,0) = 1.00	 
y(0,1,1) = 0.00	 y(1,0,1) = 1.00	 
y(0,2,1) = 0.23	 y(2,0,1) = 0.77	 
y(0,3,1) = 0.00	 y(3,0,1) = 1.00	 
y(1,2,1) = 0.45	 y(2,1,1) = 0.55	 
y(1,3,1) = 0.27	 y(3,1,1) = 0.73	 
y(2,3,1) = 0.00	 y(3,2,1) = 1.00	 
y(0,1,2) = 0.89	 y(1,0,2) = 0.11	 
y(0,2,2) = 0.33	 y(2,0,2) = 0.67	 
y(0,3,2) = 0.61	 y(3,0,2) = 0.39	 
y(1,2,2) = 0.07	 y(2,1,2) = 0.93	 
y(1,3,2) = 0.51	 y(3,1,2) = 0.49	 
y(2,3,2) = 0.34	 y(3,2,2) = 0.66	 
y(0,1,3) = 0.00	 y(1,0,3) = 1.00	 
y(0,2,3) = 0.77	 y(2,0,3) = 0.23	 
y(0,3,3) = 0.07	 y(3,0,3) = 0.93	 
y(1,2,3) = 0.33	 y(2,1,3) = 0.67	 
y(1,3,3) = -0.00	 y(3,1,3) = 1.00	 
y(2,3,3) = 0.00	 y(3,2,3) = 1.00	 
obj:  0.972825833028473
solutions:  1
+ 0.005524861878453042x(1,2) + 0.04419889502762431x(3,2) 
[(1, 2), (3, 2), (0, 0), (1, 3), (2, 1), (1, 1), (2, 3), (2, 2), (1, 0), (0, 2)]
cliques:  1 mip: 111
C:  34.0
x(0,0) = 1.23	 x(0,1) = 27.00	 x(0,2) = 20.25	 x(0,3) = 11.23	 
x(1,0) = 3.23	 x(1,1) = 13.17	 x(1,2) = 18.17	 x(1,3) = 4.23	 
x(2,0) = 33.00	 x(2,1) = 21.49	 x(2,2) = 18.05	 x(2,3) = 9.05	 
x(3,0) = 11.23	 x(3,1) = 1.23	 x(3,2) = 22.98	 x(3,3) = 8.23	 
y(0,1,0) = 0.12	 y(1,0,0) = 0.87	 
y(0,2,0) = 1.00	 y(2,0,0) = 0.00	 
y(0,3,0) = 1.00	 y(3,0,0) = 0.00	 
y(1,2,0) = 1.00	 y(2,1,0) = 0.00	 
y(1,3,0) = 1.00	 y(3,1,0) = 0.00	 
y(2,3,0) = 0.00	 y(3,2,0) = 1.00	 
y(0,1,1) = 0.09	 y(1,0,1) = 0.91	 
y(0,2,1) = 0.25	 y(2,0,1) = 0.75	 
y(0,3,1) = 0.00	 y(3,0,1) = 1.00	 
y(1,2,1) = 0.57	 y(2,1,1) = 0.43	 
y(1,3,1) = 0.31	 y(3,1,1) = 0.69	 
y(2,3,1) = 0.00	 y(3,2,1) = 1.00	 
y(0,1,2) = 0.66	 y(1,0,2) = 0.34	 
y(0,2,2) = 0.03	 y(2,0,2) = 0.97	 
y(0,3,2) = 0.39	 y(3,0,2) = 0.61	 
y(1,2,2) = 0.12	 y(2,1,2) = 0.88	 
y(1,3,2) = 0.87	 y(3,1,2) = 0.13	 
y(2,3,2) = 0.91	 y(3,2,2) = 0.09	 
y(0,1,3) = 0.00	 y(1,0,3) = 1.00	 
y(0,2,3) = 0.30	 y(2,0,3) = 0.70	 
y(0,3,3) = 0.00	 y(3,0,3) = 1.00	 
y(1,2,3) = 0.56	 y(2,1,3) = 0.44	 
y(1,3,3) = 0.34	 y(3,1,3) = 0.66	 
y(2,3,3) = 0.09	 y(3,2,3) = 0.91	 
obj:  1.0136963761746638
erro
[(1, 2), (3, 2), (1, 3), (3, 3), (3, 1), (2, 1), (1, 1), (2, 3), (0, 2)]
cliques:  0 mip: 81
C:  34.00000000000001
x(0,0) = 0.92	 x(0,1) = 27.00	 x(0,2) = 20.08	 x(0,3) = 19.08	 
x(1,0) = 0.83	 x(1,1) = 10.80	 x(1,2) = 16.30	 x(1,3) = 1.83	 
x(2,0) = 33.00	 x(2,1) = 22.10	 x(2,2) = 19.10	 x(2,3) = 10.10	 
x(3,0) = 11.10	 x(3,1) = 0.23	 x(3,2) = 23.60	 x(3,3) = 8.10	 
y(0,1,0) = 0.04	 y(1,0,0) = 0.96	 
y(0,2,0) = 1.00	 y(2,0,0) = 0.00	 
y(0,3,0) = 1.00	 y(3,0,0) = 0.00	 
y(1,2,0) = 1.00	 y(2,1,0) = 0.00	 
y(1,3,0) = 1.00	 y(3,1,0) = 0.00	 
y(2,3,0) = 0.00	 y(3,2,0) = 1.00	 
y(0,1,1) = 0.00	 y(1,0,1) = 1.00	 
y(0,2,1) = 0.35	 y(2,0,1) = 0.65	 
y(0,3,1) = 0.00	 y(3,0,1) = 1.00	 
y(1,2,1) = 0.65	 y(2,1,1) = 0.35	 
y(1,3,1) = 0.15	 y(3,1,1) = 0.85	 
y(2,3,1) = 0.00	 y(3,2,1) = 1.00	 
y(0,1,2) = 0.46	 y(1,0,2) = 0.54	 
y(0,2,2) = 0.21	 y(2,0,2) = 0.79	 
y(0,3,2) = 0.67	 y(3,0,2) = 0.33	 
y(1,2,2) = 0.25	 y(2,1,2) = 0.75	 
y(1,3,2) = 0.97	 y(3,1,2) = 0.03	 
y(2,3,2) = 0.93	 y(3,2,2) = 0.07	 
y(0,1,3) = 0.00	 y(1,0,3) = 1.00	 
y(0,2,3) = 0.00	 y(2,0,3) = 1.00	 
y(0,3,3) = 0.00	 y(3,0,3) = 1.00	 
y(1,2,3) = 0.70	 y(2,1,3) = 0.30	 
y(1,3,3) = 0.53	 y(3,1,3) = 0.47	 
y(2,3,3) = 0.04	 y(3,2,3) = 0.96	 
obj:  0.9961744755085771
solutions:  1
+ 0.06306306306306307x(1,3) + 0.02702702702702703x(3,3) + 0.06552006552006553x(2,3) 
[(1, 2), (0, 1), (3, 2), (1, 3), (3, 3), (2, 1), (1, 1), (2, 3), (0, 2)]
cliques:  1 mip: 98
C:  33.99999999999999
x(0,0) = 1.41	 x(0,1) = 27.00	 x(0,2) = 19.39	 x(0,3) = 16.41	 
x(1,0) = 3.55	 x(1,1) = 11.55	 x(1,2) = 16.55	 x(1,3) = 4.55	 
x(2,0) = 33.00	 x(2,1) = 20.62	 x(2,2) = 17.46	 x(2,3) = 7.41	 
x(3,0) = 11.41	 x(3,1) = 1.41	 x(3,2) = 23.74	 x(3,3) = 8.41	 
y(0,1,0) = 0.13	 y(1,0,0) = 0.87	 
y(0,2,0) = 1.00	 y(2,0,0) = 0.00	 
y(0,3,0) = 1.00	 y(3,0,0) = 0.00	 
y(1,2,0) = 1.00	 y(2,1,0) = 0.00	 
y(1,3,0) = 1.00	 y(3,1,0) = 0.00	 
y(2,3,0) = 0.00	 y(3,2,0) = 1.00	 
y(0,1,1) = 0.00	 y(1,0,1) = 1.00	 
y(0,2,1) = 0.11	 y(2,0,1) = 0.89	 
y(0,3,1) = 0.00	 y(3,0,1) = 1.00	 
y(1,2,1) = 0.74	 y(2,1,1) = 0.26	 
y(1,3,1) = 0.11	 y(3,1,1) = 0.89	 
y(2,3,1) = 0.00	 y(3,2,1) = 1.00	 
y(0,1,2) = 0.32	 y(1,0,2) = 0.68	 
y(0,2,2) = 0.30	 y(2,0,2) = 0.70	 
y(0,3,2) = 0.43	 y(3,0,2) = 0.57	 
y(1,2,2) = 0.34	 y(2,1,2) = 0.66	 
y(1,3,2) = 0.97	 y(3,1,2) = 0.03	 
y(2,3,2) = 0.85	 y(3,2,2) = 0.15	 
y(0,1,3) = 0.00	 y(1,0,3) = 1.00	 
y(0,2,3) = 0.00	 y(2,0,3) = 1.00	 
y(0,3,3) = 0.00	 y(3,0,3) = 1.00	 
y(1,2,3) = 0.74	 y(2,1,3) = 0.26	 
y(1,3,3) = 0.33	 y(3,1,3) = 0.67	 
y(2,3,3) = 0.27	 y(3,2,3) = 0.73	 
obj:  0.9762903549555664
solutions:  1
+ 0.013312063369822316x(1,2) + 0.021632102975961284x(3,2) + 0.010671654106386489x(1,3) + 0.01467352439628141x(3,3) + 0.0036305627372242694x(0,2) 
[(1, 2), (3, 2), (1, 3), (3, 3), (2, 3), (2, 2), (0, 2)]
cliques:  1 mip: 92
C:  34.308368496067104
x(0,0) = 0.67	 x(0,1) = 24.43	 x(0,2) = 18.43	 x(0,3) = 17.43	 
x(1,0) = 3.31	 x(1,1) = 11.31	 x(1,2) = 16.31	 x(1,3) = 4.31	 
x(2,0) = 33.31	 x(2,1) = 25.13	 x(2,2) = 15.22	 x(2,3) = 6.22	 
x(3,0) = 15.00	 x(3,1) = 0.44	 x(3,2) = 24.31	 x(3,3) = 12.00	 
y(0,1,0) = 0.25	 y(1,0,0) = 0.75	 
y(0,2,0) = 1.00	 y(2,0,0) = 0.00	 
y(0,3,0) = 0.89	 y(3,0,0) = 0.11	 
y(1,2,0) = 1.00	 y(2,1,0) = 0.00	 
y(1,3,0) = 1.00	 y(3,1,0) = 0.00	 
y(2,3,0) = 0.00	 y(3,2,0) = 1.00	 
y(0,1,1) = 0.09	 y(1,0,1) = 0.91	 
y(0,2,1) = 0.80	 y(2,0,1) = 0.20	 
y(0,3,1) = 0.00	 y(3,0,1) = 1.00	 
y(1,2,1) = 1.00	 y(2,1,1) = -0.00	 
y(1,3,1) = 0.56	 y(3,1,1) = 0.44	 
y(2,3,1) = 0.00	 y(3,2,1) = 1.00	 
y(0,1,2) = 0.36	 y(1,0,2) = 0.64	 
y(0,2,2) = 0.67	 y(2,0,2) = 0.33	 
y(0,3,2) = 0.98	 y(3,0,2) = 0.02	 
y(1,2,2) = 0.74	 y(2,1,2) = 0.26	 
y(1,3,2) = 1.00	 y(3,1,2) = 0.00	 
y(2,3,2) = 0.72	 y(3,2,2) = 0.28	 
y(0,1,3) = 0.53	 y(1,0,3) = 0.47	 
y(0,2,3) = -0.00	 y(2,0,3) = 1.00	 
y(0,3,3) = 0.00	 y(3,0,3) = 1.00	 
y(1,2,3) = 0.84	 y(2,1,3) = 0.16	 
y(1,3,3) = 0.69	 y(3,1,3) = 0.31	 
y(2,3,3) = 0.35	 y(3,2,3) = 0.65	 
obj:  0.9858475132914972
solutions:  1
+ 0.0622950819672131x(1,3) + 0.019672131147540982x(3,3) + 0.05901639344262297x(2,3) + 0.00655737704918031x(0,3) 
[(1, 2), (1, 3), (3, 3), (3, 1), (1, 1), (2, 3), (2, 2), (0, 3), (0, 2)]
cliques:  1 mip: 116
C:  34.999850857256384
x(0,0) = 0.84	 x(0,1) = 28.00	 x(0,2) = 17.92	 x(0,3) = 16.92	 
x(1,0) = 8.12	 x(1,1) = 16.12	 x(1,2) = 26.54	 x(1,3) = 9.12	 
x(2,0) = 34.00	 x(2,1) = 23.84	 x(2,2) = 17.58	 x(2,3) = 8.58	 
x(3,0) = 10.91	 x(3,1) = 0.91	 x(3,2) = 20.51	 x(3,3) = 7.91	 
y(0,1,0) = 0.35	 y(1,0,0) = 0.65	 
y(0,2,0) = 1.00	 y(2,0,0) = 0.00	 
y(0,3,0) = 0.57	 y(3,0,0) = 0.43	 
y(1,2,0) = 1.00	 y(2,1,0) = 0.00	 
y(1,3,0) = 1.00	 y(3,1,0) = 0.00	 
y(2,3,0) = 0.00	 y(3,2,0) = 1.00	 
y(0,1,1) = 0.00	 y(1,0,1) = 1.00	 
y(0,2,1) = 0.47	 y(2,0,1) = 0.53	 
y(0,3,1) = 0.00	 y(3,0,1) = 1.00	 
y(1,2,1) = 1.00	 y(2,1,1) = 0.00	 
y(1,3,1) = 0.44	 y(3,1,1) = 0.56	 
y(2,3,1) = 0.00	 y(3,2,1) = 1.00	 
y(0,1,2) = 0.50	 y(1,0,2) = 0.50	 
y(0,2,2) = 0.77	 y(2,0,2) = 0.23	 
y(0,3,2) = 0.58	 y(3,0,2) = 0.42	 
y(1,2,2) = 0.52	 y(2,1,2) = 0.48	 
y(1,3,2) = 0.44	 y(3,1,2) = 0.56	 
y(2,3,2) = 1.00	 y(3,2,2) = 0.00	 
y(0,1,3) = 0.62	 y(1,0,3) = 0.38	 
y(0,2,3) = 0.03	 y(2,0,3) = 0.97	 
y(0,3,3) = 0.00	 y(3,0,3) = 1.00	 
y(1,2,3) = 0.76	 y(2,1,3) = 0.24	 
y(1,3,3) = 0.66	 y(3,1,3) = 0.34	 
y(2,3,3) = 0.09	 y(3,2,3) = 0.91	 
obj:  1.0530917627337788
erro
[(1, 2), (0, 1), (3, 2), (0, 0), (3, 0), (3, 1), (2, 1), (1, 1), (2, 2), (0, 2)]
cliques:  0 mip: 41
C:  34.99988427957888
x(0,0) = 4.55	 x(0,1) = 28.00	 x(0,2) = 17.03	 x(0,3) = 16.03	 
x(1,0) = 3.55	 x(1,1) = 11.55	 x(1,2) = 23.88	 x(1,3) = 4.55	 
x(2,0) = 34.00	 x(2,1) = 25.15	 x(2,2) = 22.15	 x(2,3) = 8.47	 
x(3,0) = 11.22	 x(3,1) = 1.22	 x(3,2) = 21.23	 x(3,3) = 8.22	 
y(0,1,0) = 0.00	 y(1,0,0) = 1.00	 
y(0,2,0) = 1.00	 y(2,0,0) = 0.00	 
y(0,3,0) = 0.59	 y(3,0,0) = 0.41	 
y(1,2,0) = 1.00	 y(2,1,0) = 0.00	 
y(1,3,0) = 1.00	 y(3,1,0) = 0.00	 
y(2,3,0) = 0.00	 y(3,2,0) = 1.00	 
y(0,1,1) = 0.00	 y(1,0,1) = 1.00	 
y(0,2,1) = 0.69	 y(2,0,1) = 0.31	 
y(0,3,1) = 0.00	 y(3,0,1) = 1.00	 
y(1,2,1) = 1.00	 y(2,1,1) = 0.00	 
y(1,3,1) = 0.57	 y(3,1,1) = 0.43	 
y(2,3,1) = 0.00	 y(3,2,1) = 1.00	 
y(0,1,2) = 0.45	 y(1,0,2) = 0.55	 
y(0,2,2) = 0.97	 y(2,0,2) = 0.03	 
y(0,3,2) = 0.68	 y(3,0,2) = 0.32	 
y(1,2,2) = 0.72	 y(2,1,2) = 0.28	 
y(1,3,2) = 0.57	 y(3,1,2) = 0.43	 
y(2,3,2) = 0.77	 y(3,2,2) = 0.23	 
y(0,1,3) = 0.53	 y(1,0,3) = 0.47	 
y(0,2,3) = 0.06	 y(2,0,3) = 0.94	 
y(0,3,3) = 0.00	 y(3,0,3) = 1.00	 
y(1,2,3) = 0.90	 y(2,1,3) = 0.10	 
y(1,3,3) = 0.86	 y(3,1,3) = 0.14	 
y(2,3,3) = 0.11	 y(3,2,3) = 0.89	 
obj:  1.0401638155836865
erro
[(1, 2), (3, 2), (1, 3), (0, 0), (3, 0), (3, 1), (1, 1), (0, 3), (0, 2)]
cliques:  0 mip: 0
iterações: 12 cortes cliques encontrados: 9 mip: 1034 objective:  34.99988427957888
Coin0506I Presolve 157 (-171) rows, 90 (-71) columns and 490 (-260) elements
Clp1000I sum of infeasibilities 1.79124e-08 - average 1.14092e-10, 0 fixed columns
Coin0506I Presolve 157 (0) rows, 90 (0) columns and 490 (0) elements
Clp0029I End of values pass after 90 iterations
Clp0000I Optimal - objective value 29
Clp0000I Optimal - objective value 29
Coin0511I After Postsolve, objective 29, infeasibilities - dual 0 (0), primal 0 (0)
Clp0000I Optimal - objective value 29
Clp0000I Optimal - objective value 29
Clp0000I Optimal - objective value 29
Coin0511I After Postsolve, objective 29, infeasibilities - dual 0 (0), primal 0 (0)
Clp0032I Optimal objective 29 - 0 iterations time 0.012, Presolve 0.00, Idiot 0.01
Coin3009W Conflict graph built in 0.000 seconds, density: 0.071%
